Version identifier: 20.1.0.0 | 2020-11-10 | 9bedb6d68
Tried aggregator 3 times.
MIP Presolve eliminated 936 rows and 529 columns.
MIP Presolve modified 1744 coefficients.
Aggregator did 95 substitutions.
Reduced MIP has 675 rows, 583 columns, and 2124 nonzeros.
Reduced MIP has 145 binaries, 438 generals, 0 SOSs, and 0 indicators.
Presolve time = 0.01 sec. (4.27 ticks)
Found incumbent of value 1039.000000 after 0.01 sec. (6.25 ticks)
Probing fixed 20 vars, tightened 194 bounds.
Probing time = 0.00 sec. (0.51 ticks)
Tried aggregator 2 times.
MIP Presolve eliminated 279 rows and 49 columns.
MIP Presolve modified 70 coefficients.
Aggregator did 23 substitutions.
Reduced MIP has 373 rows, 511 columns, and 1199 nonzeros.
Reduced MIP has 181 binaries, 330 generals, 0 SOSs, and 0 indicators.
Presolve time = 0.00 sec. (1.58 ticks)
Probing time = 0.00 sec. (0.09 ticks)
Tried aggregator 1 time.
Detecting symmetries...
MIP Presolve modified 113 coefficients.
Reduced MIP has 373 rows, 511 columns, and 1199 nonzeros.
Reduced MIP has 186 binaries, 325 generals, 0 SOSs, and 0 indicators.
Presolve time = 0.00 sec. (0.93 ticks)
Probing time = 0.00 sec. (0.09 ticks)
Clique table members: 1.
MIP emphasis: balance optimality and feasibility.
MIP search method: dynamic search.
Parallel mode: deterministic, using up to 24 threads.
Root relaxation solution time = 0.00 sec. (1.11 ticks)

        Nodes                                         Cuts/
   Node  Left     Objective  IInf  Best Integer    Best Bound    ItCnt     Gap

*     0+    0                         1039.0000        0.0000           100.00%
*     0+    0                           45.0000        0.0000           100.00%
      0     0        1.3333    33       45.0000        1.3333      138   97.04%
      0     0        6.0000    76       45.0000      Cuts: 79      229   86.67%
*     0+    0                           29.0000        6.0000            79.31%
      0     0        6.1429   141       29.0000      Cuts: 58      319   78.82%
*     0+    0                           25.0000        6.1429            75.43%
      0     0        6.2222   133       25.0000      Cuts: 41      349   75.11%
      0     0        6.2222   122       25.0000      Cuts: 39      375   75.11%
      0     0        6.2222   140       25.0000      Cuts: 42      402   75.11%
      0     0        6.6667    78       25.0000      Cuts: 29      430   73.33%
      0     0        7.0000   111       25.0000      Cuts: 46      481   72.00%
      0     0        7.0000   119       25.0000      Cuts: 54      534   72.00%
*     0+    0                           21.0000        7.0000            66.67%
*     0+    0                           18.0000        7.0000            61.11%
      0     0        cutoff             18.0000       18.0000      534    0.00%
Elapsed time = 0.17 sec. (58.54 ticks, tree = 0.01 MB, solutions = 6)

Implied bound cuts applied:  11
Mixed integer rounding cuts applied:  10
Zero-half cuts applied:  35
Lift and project cuts applied:  2
Gomory fractional cuts applied:  1

Root node processing (before b&c):
  Real time             =    0.17 sec. (58.62 ticks)
Parallel b&c, 24 threads:
  Real time             =    0.00 sec. (0.00 ticks)
  Sync time (average)   =    0.00 sec.
  Wait time (average)   =    0.00 sec.
                          ------------
Total (root+branch&cut) =    0.17 sec. (58.62 ticks)

Solution status = Optimal
Solution LB = 18
Solution UB = 18
Runtime = 0.182092 seconds
	Command being timed: "/home/min/git_repos/CS598MEBProject/CNT-ILP/build/cnt -s 2 ./output/k6_n20/simC_c1_k6_n20_u3_s2_del04.input-right.cnp"
	User time (seconds): 2.10
	System time (seconds): 0.08
	Percent of CPU this job got: 1128%
	Elapsed (wall clock) time (h:mm:ss or m:ss): 0:00.19
	Average shared text size (kbytes): 0
	Average unshared data size (kbytes): 0
	Average stack size (kbytes): 0
	Average total size (kbytes): 0
	Maximum resident set size (kbytes): 66984
	Average resident set size (kbytes): 0
	Major (requiring I/O) page faults: 0
	Minor (reclaiming a frame) page faults: 14179
	Voluntary context switches: 3226
	Involuntary context switches: 290
	Swaps: 0
	File system inputs: 0
	File system outputs: 16
	Socket messages sent: 0
	Socket messages received: 0
	Signals delivered: 0
	Page size (bytes): 4096
	Exit status: 0
